
<<< setup

Version identifier: 22.1.1.0 | 2022-11-27 | 9160aff4d
Tried aggregator 1 time.
LP Presolve eliminated 113 rows and 82 columns.
Reduced LP has 2 rows, 17 columns, and 17 nonzeros.
Presolve time = 0.00 sec. (0.05 ticks)

Iteration log . . .
Iteration:     1   Dual objective     =          1309.741752
main returns 0

<<< main


<<< done

